Set parameter TSPort to value 51199
Set parameter TokenServer to value "open-license1.lanl.gov"
Set parameter TimeLimit to value 512
Set parameter Threads to value 1
Gurobi Optimizer version 10.0.3 build v10.0.3rc0 (linux64)

CPU model: Intel(R) Xeon(R) CPU E5-2695 v4 @ 2.10GHz, instruction set [SSE2|AVX|AVX2]
Thread count: 36 physical cores, 72 logical processors, using up to 1 threads

Optimize a model with 0 rows, 598 columns and 0 nonzeros
Model fingerprint: 0x370c0171
Model has 2616 quadratic objective terms
Variable types: 0 continuous, 598 integer (598 binary)
Coefficient statistics:
  Matrix range     [0e+00, 0e+00]
  Objective range  [2e+00, 3e+01]
  QObjective range [8e+00, 8e+00]
  Bounds range     [1e+00, 1e+00]
  RHS range        [0e+00, 0e+00]
Found heuristic solution: objective 0.0000000
Found heuristic solution: objective -1012.000000
Found heuristic solution: objective -3654.000000
Found heuristic solution: objective -3676.000000
Presolve removed 0 rows and 1 columns
Presolve time: 0.24s
Presolved: 2615 rows, 3212 columns, 7845 nonzeros
Variable types: 0 continuous, 3212 integer (3212 binary)

Root relaxation: objective -4.948000e+03, 768 iterations, 0.02 seconds (0.01 work units)

    Nodes    |    Current Node    |     Objective Bounds      |     Work
 Expl Unexpl |  Obj  Depth IntInf | Incumbent    BestBd   Gap | It/Node Time

     0     0 -4948.0000    0  597 -3676.0000 -4948.0000  34.6%     -    0s
     0     0 -4518.5000    0  829 -3676.0000 -4518.5000  22.9%     -    0s
     0     0 -4517.5000    0  825 -3676.0000 -4517.5000  22.9%     -    0s
     0     0 -4413.5000    0  895 -3676.0000 -4413.5000  20.1%     -    0s
     0     0 -4413.5000    0  878 -3676.0000 -4413.5000  20.1%     -    1s
     0     2 -4413.3333    0  878 -3676.0000 -4413.3333  20.1%     -    1s
   511   474 -3761.0000  101 1308 -3676.0000 -4393.5000  19.5%  95.3    5s
   532   488 -3747.0000  101 1676 -3676.0000 -4074.1651  10.8%  91.5   10s
   542   495 -3836.0000   83 2017 -3676.0000 -4012.1904  9.15%  89.8   15s
   551   501 -3977.3781   30 2201 -3676.0000 -3977.3781  8.20%  88.4   20s
   560   507 -3947.1012    6 2456 -3676.0000 -3947.1012  7.37%  86.9   27s
   563   509 -3871.0000   77 2576 -3676.0000 -3941.7091  7.23%  86.5   30s
   568   512 -3689.5000  122 2648 -3676.0000 -3924.1550  6.75%  85.7   35s
   575   517 -3761.0000   95 2702 -3676.0000 -3908.7437  6.33%  84.7   42s
   581   521 -3905.9421   34 2752 -3676.0000 -3905.9421  6.26%  83.8   45s
   588   525 -3896.3598   68 2741 -3676.0000 -3896.3598  5.99%  82.8   51s
   594   529 -3891.3236   63 2740 -3676.0000 -3891.3236  5.86%  82.0   55s
   601   534 -3885.1047   45 2789 -3676.0000 -3885.1047  5.69%  81.0   60s
   612   541 -3745.0000  103 2829 -3676.0000 -3881.5923  5.59%  79.5   65s
   622   548 -3876.8404   51 2833 -3676.0000 -3876.8404  5.46%  78.3   70s
   633   555 -3872.5317   32 2853 -3676.0000 -3872.5317  5.35%  76.9   75s
   648   565 -3868.9947   55 2875 -3676.0000 -3868.9947  5.25%  75.1   80s
   662   575 -3810.0000   90 2877 -3676.0000 -3865.2819  5.15%  73.5   85s
   679   586 -3844.0000   77 2904 -3676.0000 -3862.9577  5.09%  71.7   90s
   699   599 -3860.2112   11 2892 -3676.0000 -3860.2112  5.01%  69.6   95s
   710   608 -3812.0000   89 2571 -3676.0000 -3860.2028  5.01%   352  103s
   711   608 -3761.0000  101 2783 -3676.0000 -3860.2028  5.01%   352  108s
   712   609 -3745.0000  103 2839 -3676.0000 -3860.2028  5.01%   351  111s
   722   616 -3859.2212   51 2890 -3676.0000 -3859.2212  4.98%   346  115s
   732   622 -3747.0000  101 2894 -3676.0000 -3856.2929  4.90%   342  120s
   743   630 -3853.7568   11 2897 -3676.0000 -3853.7568  4.84%   337  125s
   755   638 -3784.0000   90 2882 -3676.0000 -3851.7502  4.78%   331  130s
   765   644 -3849.1973   26 2891 -3676.0000 -3849.1973  4.71%   327  135s
   776   652 -3817.0000   87 2900 -3676.0000 -3846.5763  4.64%   322  140s
   790   661 -3797.0000   94 2900 -3676.0000 -3844.8416  4.59%   317  145s
   809   674 -3843.2247   64 2923 -3676.0000 -3843.2247  4.55%   309  150s
   826   685 -3812.0000   89 2936 -3676.0000 -3842.0484  4.52%   303  155s
   844   697 -3798.0000   87 2951 -3676.0000 -3841.0934  4.49%   296  160s
   862   709 -3810.0000   90 2970 -3676.0000 -3840.3364  4.47%   290  165s
   877   719 -3799.0000   87 2953 -3676.0000 -3839.3558  4.44%   285  170s
   893   730 -3838.7773   10 2944 -3676.0000 -3838.7773  4.43%   280  180s
   895   733 -3836.3113   19 2894 -3676.0000 -3836.3113  4.36%   443  185s
   899   736 -3830.5732   21 2793 -3676.0000 -3836.3113  4.36%   455  191s
   902   738 -3827.2235   23 2748 -3676.0000 -3836.3113  4.36%   463  195s
   906   740 -3822.2584   25 2700 -3676.0000 -3836.3113  4.36%   479  201s
   910   743 -3821.4108   27 2671 -3676.0000 -3836.3113  4.36%   487  205s
   914   746 -3818.6007   29 2597 -3676.0000 -3836.3113  4.36%   500  211s
   918   748 -3811.4690   31 2568 -3676.0000 -3836.3113  4.36%   512  216s
   922   751 -3809.7558   33 2509 -3676.0000 -3836.3113  4.36%   520  220s
   928   755 -3803.9081   36 2430 -3676.0000 -3836.3113  4.36%   533  225s
   934   759 -3797.7177   39 2399 -3676.0000 -3836.3113  4.36%   543  230s
   939   762 -3790.1659   41 2367 -3676.0000 -3836.3113  4.36%   554  235s
   946   767 -3786.7830   45 2325 -3676.0000 -3836.3113  4.36%   562  241s
   953   772 -3775.3923   48 2292 -3676.0000 -3836.3113  4.36%   571  245s
   961   777 -3778.1086   52 2237 -3676.0000 -3836.3113  4.36%   581  250s
   972   784 -3768.9755   58 2184 -3676.0000 -3836.3113  4.36%   589  255s
   984   792 -3756.0784   64 2129 -3676.0000 -3836.3113  4.36%   599  260s
   998   802 -3747.8019   71 2034 -3676.0000 -3836.3113  4.36%   605  265s
  1018   815 -3736.8782   81 1922 -3676.0000 -3836.3113  4.36%   608  270s
  1042   831 -3721.9371   93 1810 -3676.0000 -3836.3113  4.36%   611  275s
  1069   849 -3700.1806  106 1745 -3676.0000 -3836.3113  4.36%   613  280s
  1104   858 -3834.3261   20 2870 -3676.0000 -3836.1762  4.36%   609  285s
  1106   860 -3829.7182   21 2858 -3676.0000 -3836.1762  4.36%   617  290s
  1110   862 -3825.9042   23 2772 -3676.0000 -3836.1762  4.36%   627  296s
  1114   865 -3821.0938   25 2713 -3676.0000 -3836.1762  4.36%   635  301s
  1117   867 -3815.1748   27 2656 -3676.0000 -3836.1762  4.36%   641  305s
  1122   870 -3806.7746   29 2588 -3676.0000 -3836.1762  4.36%   650  310s
  1127   874 -3805.2603   32 2526 -3676.0000 -3836.1762  4.36%   658  315s
  1132   877 -3797.2765   34 2525 -3676.0000 -3836.1762  4.36%   667  321s
  1137   880 -3792.8294   37 2466 -3676.0000 -3836.1762  4.36%   674  325s
  1145   886 -3787.0040   41 2423 -3676.0000 -3836.1762  4.36%   680  330s
  1151   890 -3780.0094   44 2391 -3676.0000 -3836.1762  4.36%   689  335s
  1158   894 -3768.1569   47 2330 -3676.0000 -3836.1762  4.36%   698  340s
  1165   899 -3767.4318   51 2254 -3676.0000 -3836.1762  4.36%   705  345s
  1176   906 -3758.1987   56 2224 -3676.0000 -3836.1762  4.36%   712  350s
  1189   915 -3746.7723   63 2161 -3676.0000 -3836.1762  4.36%   719  355s
  1204   925 -3735.2966   70 2121 -3676.0000 -3836.1762  4.36%   722  360s
  1222   937 -3717.0661   79 2036 -3676.0000 -3836.1762  4.36%   724  365s
  1243   951 -3718.5122   90 1861 -3676.0000 -3836.1762  4.36%   726  370s
H 1271   908                    -3696.000000 -3836.1762  3.79%   722  374s
  1278   912 -3703.2849  107 1432 -3696.0000 -3836.1762  3.79%   721  375s
H 1299   860                    -3700.000000 -3836.1762  3.68%   713  378s
  1300   863 -3830.8399   21 2866 -3700.0000 -3833.2208  3.60%   718  380s
  1303   865 -3825.4074   22 2799 -3700.0000 -3833.2208  3.60%   727  386s
  1306   867 -3820.9698   24 2744 -3700.0000 -3833.2208  3.60%   733  391s
  1309   869 -3817.1941   25 2723 -3700.0000 -3833.2208  3.60%   739  395s
  1313   872 -3810.6581   27 2676 -3700.0000 -3833.2208  3.60%   746  400s
  1318   875 -3808.1288   30 2625 -3700.0000 -3833.2208  3.60%   751  405s
  1324   879 -3801.5693   33 2522 -3700.0000 -3833.2208  3.60%   757  410s
  1329   882 -3796.5027   35 2479 -3700.0000 -3833.2208  3.60%   764  415s
  1335   886 -3786.8894   38 2446 -3700.0000 -3833.2208  3.60%   769  420s
  1342   891 -3780.2810   42 2367 -3700.0000 -3833.2208  3.60%   775  425s
  1349   896 -3771.7005   45 2320 -3700.0000 -3833.2208  3.60%   783  430s
  1358   902 -3765.4079   50 2237 -3700.0000 -3833.2208  3.60%   788  435s
  1370   910 -3755.7935   56 2187 -3700.0000 -3833.2208  3.60%   791  440s
  1381   917 -3741.7408   61 2129 -3700.0000 -3833.2208  3.60%   796  445s
  1394   926 -3739.4404   68 2090 -3700.0000 -3833.2208  3.60%   799  450s
  1410   936 -3731.0546   76 1999 -3700.0000 -3833.2208  3.60%   801  455s
  1433   952 -3715.4032   87 1911 -3700.0000 -3833.2208  3.60%   800  460s
  1462   965 -3706.6814  102 1819 -3700.0000 -3833.2208  3.60%   796  465s
  1484   960 -3829.7308   21 2832 -3700.0000 -3833.2207  3.60%   790  470s
  1487   962 -3823.9470   23 2773 -3700.0000 -3833.2207  3.60%   798  476s
  1490   964 -3822.8307   23 2777 -3700.0000 -3833.2207  3.60%   802  480s
  1494   966 -3812.9932   27 2667 -3700.0000 -3833.2207  3.60%   807  485s
  1499   970 -3806.7741   29 2612 -3700.0000 -3833.2207  3.60%   813  490s
  1504   973 -3805.6662   30 2596 -3700.0000 -3833.2207  3.60%   818  495s
  1509   976 -3804.0693   30 2597 -3700.0000 -3833.2207  3.60%   823  500s
  1515   980 -3800.9909   31 2576 -3700.0000 -3833.2207  3.60%   829  505s
  1521   984 -3798.8546   33 2535 -3700.0000 -3833.2207  3.60%   833  510s

Cutting planes:
  Gomory: 21
  MIR: 99
  Flow cover: 1277
  Zero half: 445
  Mod-K: 6
  RLT: 114
  BQP: 182

Explored 1523 nodes (1275353 simplex iterations) in 512.00 seconds (594.78 work units)
Thread count was 1 (of 72 available processors)

Solution count 6: -3700 -3696 -3676 ... 0

Time limit reached
Best objective -3.700000000000e+03, best bound -3.832000000000e+03, gap 3.5676%

User-callback calls 25512, time in user-callback 0.13 sec

BQP_SOLUTION, 598, 2616, -1368.000000, 512.001314, 1, 1, -1, 1, -1, 1, 1, 1, -1, -1, -1, 1, 1, -1, -1, -1, 1, -1, -1, -1, 1, 1, 1, -1, -1, -1, 1, 1, -1, -1, -1, 1, 1, -1, -1, -1, 1, 1, -1, -1, 1, -1, 1, 1, -1, -1, 1, 1, 1, -1, -1, -1, -1, 1, -1, 1, 1, 1, -1, -1, -1, -1, 1, -1, -1, -1, 1, -1, -1, 1, -1, -1, 1, -1, -1, -1, -1, -1, -1, -1, -1, -1, 1, -1, -1, -1, -1, 1, -1, -1, -1, -1, -1, 1, -1, -1, -1, -1, 1, -1, 1, 1, -1, 1, -1, 1, -1, -1, 1, 1, -1, -1, -1, 1, 1, 1, -1, -1, 1, 1, -1, -1, 1, 1, 1, -1, -1, 1, 1, -1, -1, -1, 1, 1, 1, -1, 1, 1, 1, 1, -1, -1, 1, 1, 1, -1, -1, 1, 1, -1, -1, 1, 1, 1, 1, -1, -1, 1, 1, 1, -1, 1, 1, 1, 1, -1, 1, 1, 1, -1, -1, -1, -1, 1, 1, -1, 1, 1, 1, -1, 1, -1, 1, 1, -1, 1, -1, 1, 1, -1, 1, -1, 1, 1, -1, 1, -1, 1, 1, -1, 1, 1, 1, 1, -1, 1, -1, -1, 1, -1, -1, -1, 1, 1, -1, 1, -1, -1, 1, 1, -1, -1, -1, 1, -1, 1, -1, -1, 1, 1, -1, 1, -1, 1, -1, -1, -1, -1, 1, -1, -1, -1, -1, 1, -1, 1, -1, -1, 1, -1, -1, -1, -1, -1, -1, 1, -1, -1, 1, -1, 1, -1, -1, 1, -1, 1, -1, -1, -1, -1, 1, -1, -1, -1, -1, -1, -1, -1, 1, -1, 1, -1, 1, -1, 1, -1, -1, -1, -1, -1, -1, -1, 1, -1, -1, -1, 1, -1, -1, 1, 1, 1, -1, 1, 1, -1, 1, 1, 1, 1, 1, 1, 1, 1, 1, -1, 1, 1, 1, 1, 1, 1, 1, 1, 1, 1, 1, 1, 1, 1, 1, 1, 1, 1, 1, 1, 1, 1, 1, -1, 1, 1, 1, -1, 1, 1, 1, 1, -1, 1, 1, 1, 1, -1, 1, -1, 1, -1, 1, 1, 1, -1, 1, 1, 1, 1, 1, -1, 1, 1, 1, 1, 1, -1, 1, -1, -1, 1, -1, 1, 1, -1, 1, -1, 1, 1, -1, 1, 1, 1, -1, -1, -1, -1, 1, 1, 1, -1, -1, 1, 1, -1, 1, -1, 1, 1, -1, 1, -1, 1, 1, -1, 1, 1, 1, -1, -1, 1, 1, -1, -1, 1, 1, -1, 1, -1, 1, -1, -1, 1, -1, 1, 1, -1, -1, 1, 1, 1, -1, -1, -1, 1, 1, -1, 1, -1, 1, 1, -1, -1, -1, 1, 1, -1, -1, -1, 1, 1, -1, 1, -1, 1, 1, -1, 1, -1, 1, 1, 1, 1, -1, 1, 1, 1, -1, -1, 1, 1, -1, -1, 1, 1, -1, 1, -1, -1, 1, 1, 1, -1, -1, 1, 1, 1, -1, -1, 1, -1, 1, 1, -1, 1, 1, 1, -1, 1, 1, 1, 1, -1, -1, -1, 1, 1, 1, -1, 1, 1, 1, 1, -1, -1, -1, 1, 1, -1, -1, 1, 1, 1, -1, -1, 1, 1, 1, 1, -1, -1, 1, -1, 1, -1, 1, 1, -1, -1, -1, 1, 1, 1, -1, -1, 1, 1, 1, -1, -1, 1, 1, 1, -1, -1, -1, 1, 1, -1, -1, 1, 1, -1, -1, -1, 1, 1, 1, 1, -1, -1, 1, 1, -1, -1, 1, 1, 1, -1, 1, -1, 1, 1, 1, 1, -1, 1, 1, -1, 1, -1
BQP_DATA, 598, 2616, -1368.000000, -1500.000000, -3700.000000, -3832.000000, 512.001314, 1848, 1523
